# This file was generated by FitSNAP.
# Hash: ef39c9c5208f6c9e9d4f4c380d043cdc

pair_style hybrid/overlay zbl 0.9 1.4 snap
pair_coeff 1 1 zbl 74 74
pair_coeff 2 2 zbl 40 40
pair_coeff 3 3 zbl 11 11
pair_coeff 1 2 zbl 74 40
pair_coeff 1 3 zbl 74 11
pair_coeff 2 3 zbl 40 11
pair_coeff * * snap WZrC_pot.snapcoeff WZrC_pot.snapparam W Zr C